(declare-fun temp462_1 () (_ BitVec 64))
(declare-fun ARGNAME_batch_first_NAMEEND () (_ BitVec 64))
(declare-fun temp462_2 () (_ BitVec 64))
(declare-fun var133297 () (_ BitVec 64))
(declare-fun temp462_3 () (_ BitVec 64))
(declare-fun var133298 () (_ BitVec 64))
(declare-fun temp462_4 () (_ BitVec 64))
(declare-fun var198842 () (_ BitVec 64))
(declare-fun var269219 () (_ BitVec 64))
(declare-fun var334784 () (_ BitVec 64))
(declare-fun var465925 () (_ BitVec 64))
(declare-fun temp462_6 () (_ BitVec 64))
(declare-fun temp462_5 () (_ BitVec 64))
(declare-fun temp462_7 () (_ BitVec 64))
(declare-fun var1055567 () (_ BitVec 64))
(declare-fun var1121114 () (_ BitVec 64))
(declare-fun var919803 () (_ BitVec 64))
(declare-fun temp462_9 () (_ BitVec 64))
(declare-fun temp462_8 () (_ BitVec 64))
(declare-fun temp462_11 () (_ BitVec 64))
(declare-fun temp462_10 () (_ BitVec 64))
(declare-fun temp462_12 () (_ BitVec 64))
(declare-fun var4852269 () (_ BitVec 64))
(declare-fun var4920113 () (_ BitVec 64))
(declare-fun var4920152 () (_ BitVec 64))
(declare-fun temp462_14 () (_ BitVec 64))
(declare-fun temp462_13 () (_ BitVec 64))
(declare-fun temp462_15 () (_ BitVec 64))
(declare-fun var5509328 () (_ BitVec 64))
(declare-fun temp462_17 () (_ BitVec 64))
(declare-fun temp462_16 () (_ BitVec 64))
(declare-fun temp462_19 () (_ BitVec 64))
(declare-fun temp462_18 () (_ BitVec 64))
(declare-fun temp462_20 () (_ BitVec 64))
(declare-fun var7805775 () (_ BitVec 64))
(declare-fun var7871322 () (_ BitVec 64))
(declare-fun var7670011 () (_ BitVec 64))
(declare-fun temp462_21 () (_ BitVec 64))
(declare-fun var8391327 () (_ BitVec 64))
(declare-fun temp462_22 () (_ BitVec 64))
(declare-fun var8391331 () (_ BitVec 64))
(declare-fun temp462_24 () (_ BitVec 64))
(declare-fun temp462_23 () (_ BitVec 64))
(declare-fun temp462_25 () (_ BitVec 64))
(declare-fun var9177759 () (_ BitVec 64))
(declare-fun temp462_26 () (_ BitVec 64))
(declare-fun var9177763 () (_ BitVec 64))
(declare-fun temp462_27 () (_ BitVec 64))
(declare-fun var9177801 () (_ BitVec 64))
(declare-fun temp462_28 () (_ BitVec 64))
(declare-fun temp462_29 () (_ BitVec 64))
(declare-fun var9832634 () (_ BitVec 64))
(declare-fun var9903011 () (_ BitVec 64))
(declare-fun var9968576 () (_ BitVec 64))
(declare-fun var10099717 () (_ BitVec 64))
(declare-fun temp462_30 () (_ BitVec 64))
(declare-fun var10947759 () (_ BitVec 64))
(declare-fun temp462_31 () (_ BitVec 64))
(declare-fun var67634 () (_ BitVec 64))
(declare-fun temp462_32 () (_ BitVec 64))
(declare-fun var67635 () (_ BitVec 64))
(assert (= temp462_1 #x0000000000000001))
(assert (= ARGNAME_batch_first_NAMEEND temp462_1))
(assert (= temp462_2 #x0000000000000000))
(assert (= var133297 temp462_2))
(assert (= temp462_3 #x0000000000000001))
(assert (= var133298 temp462_3))
(assert (= temp462_4 #x0000000000000000))
(assert (= var198842 temp462_4))
(assert (= var269219 var198842))
(assert (= var334784 var269219))
(assert (= var465925 var334784))
(assert (= temp462_6 #x0000000000000000))
(assert (= temp462_5 temp462_6))
(assert (= temp462_7 #x0000000000000000))
(assert (= var1055567 temp462_7))
(assert (= var1121114 var1055567))
(assert (= var919803 var1121114))
(assert (= temp462_9 #xffffffffffffffff))
(assert (= temp462_8 temp462_9))
(assert (= temp462_11 #xffffffffffffffff))
(assert (= temp462_10 temp462_11))
(assert (= temp462_12 #x0000000000000002))
(assert (= var4852269 temp462_12))
(assert (= var4920113 var4852269))
(assert (= var4920152 var4920113))
(assert (= temp462_14 #xffffffffffffffff))
(assert (= temp462_13 temp462_14))
(assert (= temp462_15 #x0000000000000001))
(assert (= var5509328 temp462_15))
(assert (= temp462_17 #x0000000000000000))
(assert (= temp462_16 temp462_17))
(assert (= temp462_19 #x0000000000000000))
(assert (= temp462_18 temp462_19))
(assert (= temp462_20 #x0000000000000000))
(assert (= var7805775 temp462_20))
(assert (= var7871322 var7805775))
(assert (= var7670011 var7871322))
(assert (= temp462_21 #x0000000000000000))
(assert (= var8391327 temp462_21))
(assert (= temp462_22 #x0000000000000001))
(assert (= var8391331 temp462_22))
(assert (= temp462_24 #x0000000000000000))
(assert (= temp462_23 temp462_24))
(assert (= temp462_25 #x0000000000000001))
(assert (= var9177759 temp462_25))
(assert (= temp462_26 #x0000000000000001))
(assert (= var9177763 temp462_26))
(assert (= temp462_27 #x0000000000000000))
(assert (= var9177801 temp462_27))
(assert (= temp462_28 #x0000000000000000))
(assert (= var9177801 temp462_28))
(assert (= temp462_29 #x0000000000000000))
(assert (= var9832634 temp462_29))
(assert (= var9903011 var9832634))
(assert (= var9968576 var9903011))
(assert (= var10099717 var9968576))
(assert (= temp462_30 #x0000000000000001))
(assert (= var10947759 temp462_30))
(assert (= temp462_31 #x0000000000000000))
(assert (= var67634 temp462_31))
(assert (= temp462_32 #x0000000000000001))
(assert (= var67635 (bvadd var67634 temp462_32)))
(model-add temp462_1 () (_ BitVec 64) #x0000000000000001)
(model-add ARGNAME_batch_first_NAMEEND () (_ BitVec 64) #x0000000000000001)





